3D\Atomistic\(2)
1.0
        7.0999999046         0.0000000000         0.0000000000
        0.0000000000         4.3000001907         0.0000000000
        0.0000000000         0.0000000000         6.9000000954
    H   Li    B
   16    4    4
Direct
     0.200000003         0.020000000         0.419999987
     0.800000012         0.980000019         0.580000043
     0.300000012         0.980000019         0.919999957
     0.699999988         0.020000000         0.080000013
     0.800000012         0.519999981         0.580000043
     0.200000003         0.479999989         0.419999987
     0.699999988         0.479999989         0.080000013
     0.300000012         0.519999981         0.919999957
     0.910000026         0.250000000         0.939999998
     0.089999974         0.750000000         0.060000002
     0.589999974         0.750000000         0.439999998
     0.410000026         0.250000000         0.560000002
     0.389999986         0.250000000         0.270000011
     0.610000014         0.750000000         0.730000019
     0.110000014         0.750000000         0.769999981
     0.889999986         0.250000000         0.229999989
     0.159999996         0.250000000         0.100000001
     0.840000033         0.750000000         0.899999976
     0.340000004         0.750000000         0.600000024
     0.659999967         0.250000000         0.400000006
     0.300000012         0.250000000         0.419999987
     0.699999988         0.750000000         0.580000043
     0.199999988         0.750000000         0.919999957
     0.800000012         0.250000000         0.080000013

