L2O3
1.0
        3.9389998913         0.0000000000         0.0000000000
       -1.9694999456         3.4112739714         0.0000000000
        0.0000000000         0.0000000000         6.1360001564
    O   La
    3    2
Direct
     0.000000000         0.000000000         0.000000000
     0.333333343         0.666666687         0.647000015
     0.666666627         0.333333313         0.352999985
     0.333333343         0.666666687         0.246700004
     0.666666627         0.333333313         0.753300011

